23 22 15 21 15 24 16 23 25 19 26 14 22 16 23 20 24 18 22 21 
25 23 19 22 17 24 20 25 24 18 21 20 22 15 22 21 15 14 16 21 
22 20 21 27 16 25 20 24 25 18 20 14 24 16 23 20 15 18 17 21 
21 24 20 23 22 26 20 26 25 20 20 18 24 21 23 20 21 17 24 19 
21 26 20 26 20 25 19 26 23 19 19 18 23 16 22 20 19 15 19 21 
22 26 19 18 14 25 17 23 25 20 20 20 19 17 24 20 16 18 24 18 
22 23 20 17 17 24 19 25 23 19 21 19 16 22 23 21 23 15 22 17 
22 19 18 26 17 24 16 22 25 20 18 17 21 16 23 20 21 16 18 17 
21 24 18 17 14 24 20 23 23 18 22 18 22 16 23 19 24 16 23 20 
24 27 16 19 14 25 18 24 24 20 23 20 16 22 25 21 19 16 20 19 
23 25 15 26 21 26 16 22 23 20 18 16 17 21 22 21 24 15 21 19 
21 24 15 19 17 25 18 26 23 18 25 16 20 20 26 19 15 15 16 19 
24 20 19 24 17 25 16 26 23 20 25 15 19 23 23 19 16 16 23 17 
23 19 17 20 19 24 19 24 25 18 24 15 23 21 23 19 15 14 18 17 
24 24 17 18 15 24 16 23 24 18 26 20 24 23 26 20 15 14 17 19 
22 23 16 21 22 24 17 22 25 20 25 17 17 18 25 21 24 17 17 20 
24 27 19 20 21 26 19 25 25 18 22 20 19 17 23 20 17 15 17 21 
25 19 16 25 20 25 18 22 23 18 23 20 21 19 26 20 19 17 22 18 
21 22 19 27 19 25 18 24 23 18 20 14 20 21 25 19 23 18 21 19 
23 27 15 26 20 24 18 25 24 19 21 19 17 15 25 20 17 15 17 19 
22 20 17 23 21 26 16 25 23 20 22 15 24 20 25 21 17 18 24 19 
23 21 15 20 15 26 20 24 24 18 20 20 23 18 26 21 17 16 20 17 
24 24 19 17 22 25 19 25 23 18 19 16 23 16 24 19 25 15 18 21 
25 23 21 21 15 25 18 23 23 19 23 14 20 18 23 19 18 15 17 18 
24 22 16 23 18 25 16 22 25 20 19 18 17 22 26 20 17 16 20 17 
24 25 18 20 18 26 19 24 25 18 24 18 20 18 25 21 24 17 20 19 
23 27 19 25 14 25 16 25 24 19 25 19 21 17 23 20 19 15 21 18 
21 26 18 24 17 26 16 22 24 18 22 17 17 22 22 20 16 15 22 19 
22 22 16 18 15 24 16 26 25 18 23 14 17 23 22 19 23 16 22 20 
25 21 21 20 14 24 18 22 23 19 26 18 23 21 25 19 23 15 16 20 
21 23 20 19 19 24 17 23 23 20 24 20 17 17 26 21 17 14 20 18 
24 23 21 22 15 24 16 26 24 18 19 19 16 20 23 21 16 14 20 19 
24 22 15 18 20 25 16 26 24 20 26 14 23 21 25 20 23 15 19 21 
24 25 19 19 20 25 19 23 25 20 21 16 16 19 22 20 15 14 21 19 
23 19 21 23 14 25 18 24 24 20 18 15 18 22 22 21 21 14 16 18 
22 27 17 19 15 25 16 24 23 20 22 15 17 20 24 19 22 18 19 18 
25 20 19 23 21 26 16 24 24 19 20 14 20 17 26 21 20 14 21 21 
25 24 19 27 20 26 19 24 23 18 25 20 21 19 23 19 21 16 21 20 
25 24 21 22 22 25 20 24 23 19 18 17 20 18 23 19 20 15 19 21 
23 19 15 22 20 24 20 26 25 19 20 20 24 20 22 21 22 16 24 20 
21 21 21 23 20 26 20 22 25 18 24 19 18 22 25 21 25 17 20 19 
24 23 18 21 15 24 16 22 24 20 18 15 19 17 26 20 24 18 17 18 
24 19 17 22 18 25 17 23 24 18 20 20 23 22 25 20 16 17 20 17 
25 21 20 24 20 24 16 25 23 18 24 16 20 17 26 19 21 14 20 21 
24 21 18 27 22 25 16 24 25 18 22 19 16 22 26 20 16 14 20 17 
24 23 18 20 22 25 19 22 25 18 19 20 19 17 23 19 20 18 24 21 
21 20 17 17 19 26 17 25 25 18 22 15 19 22 24 19 24 15 21 20 
25 20 20 19 16 24 17 25 24 19 25 16 20 18 25 19 17 15 23 18 
22 27 20 26 16 24 16 23 24 18 23 18 20 19 25 21 18 16 17 17 
22 19 17 24 21 24 18 26 25 18 20 18 23 20 26 21 25 18 24 20 